33D32945 STP File, STP Format Version 1.0

SECTION Comments
Name "shell_n10_d4_s14"
Problem "Euclidean Steiner Tree Problem"
Remark "Generated with STPGenerator. 4 dimensions."
END

SECTION Graph
Nodes 10
END

SECTION Coordinates
DDDD 0 0.1700136053 -0.6518102410 0.7039859260 -0.2250391074
DDDD 1 -0.0081543923 0.3127453355 -0.7291001852 -0.6087173243
DDDD 2 0.4975478883 0.7097530184 0.0485826337 0.4963229588
DDDD 3 -0.2705421590 0.7441229362 0.1478826471 -0.5926370886
DDDD 4 0.5240235273 -0.4885850406 0.4799406622 0.5063012559
DDDD 5 -0.0243263876 -0.9768865965 0.2047904352 -0.0562288361
DDDD 6 0.2513961681 -0.8559696490 -0.3687590821 0.2610223476
DDDD 7 -0.2363071353 -0.9277017928 0.2857875911 0.0430554785
DDDD 8 0.5991715097 0.3216578561 0.1328613925 -0.7210253643
DDDD 9 -0.2777557981 -0.4059057955 -0.5319290021 -0.6893067085
END
